35
1 0 1
2 0 2
2 1 1
3 0 30
3 1 48
3 2 27
4 0 24
4 1 33
4 2 23
4 3 28
5 0 40
5 1 32
5 2 30
5 3 31
5 4 44
6 0 47
6 1 21
6 2 46
6 3 45
6 4 14
6 5 24
7 0 1
7 1 30
7 2 13
7 3 35
7 4 29
7 5 6
7 6 18
8 0 37
8 1 42
8 2 35
8 3 18
8 4 31
8 5 43
8 6 4
8 7 47
9 0 1
9 1 30
9 2 27
9 3 5
9 4 3
9 5 46
9 6 32
9 7 23
9 8 2
10 0 48
10 1 20
10 2 34
10 3 26
10 4 32
10 5 13
10 6 30
10 7 43
10 8 30
10 9 7
11 0 36
11 1 47
11 2 3
11 3 28
11 4 12
11 5 43
11 6 39
11 7 17
11 8 35
11 9 31
11 10 40
12 0 37
12 1 49
12 2 14
12 3 9
12 4 30
12 5 11
12 6 47
12 7 1
12 8 15
12 9 41
12 10 33
12 11 28
13 0 15
13 1 35
13 2 6
13 3 10
13 4 27
13 5 23
13 6 31
13 7 25
13 8 19
13 9 45
13 10 36
13 11 32
13 12 16
14 0 30
14 1 33
14 2 1
14 3 44
14 4 39
14 5 16
14 6 38
14 7 35
14 8 6
14 9 19
14 10 18
14 11 13
14 12 14
14 13 45
15 0 46
15 1 45
15 2 1
15 3 29
15 4 24
15 5 21
15 6 21
15 7 16
15 8 19
15 9 45
15 10 14
15 11 41
15 12 47
15 13 39
15 14 13
16 0 26
16 1 28
16 2 25
16 3 32
16 4 44
16 5 15
16 6 42
16 7 14
16 8 46
16 9 16
16 10 7
16 11 3
16 12 31
16 13 46
16 14 43
16 15 28
17 0 22
17 1 44
17 2 2
17 3 16
17 4 47
17 5 24
17 6 50
17 7 18
17 8 37
17 9 26
17 10 50
17 11 11
17 12 43
17 13 35
17 14 33
17 15 27
17 16 7
18 0 46
18 1 35
18 2 42
18 3 40
18 4 38
18 5 8
18 6 16
18 7 35
18 8 22
18 9 38
18 10 23
18 11 10
18 12 3
18 13 35
18 14 1
18 15 44
18 16 41
18 17 43
19 0 31
19 1 48
19 2 32
19 3 36
19 4 50
19 5 31
19 6 2
19 7 5
19 8 34
19 9 23
19 10 43
19 11 17
19 12 28
19 13 40
19 14 22
19 15 12
19 16 35
19 17 22
19 18 42
20 0 16
20 1 14
20 2 8
20 3 1
20 4 46
20 5 34
20 6 13
20 7 5
20 8 11
20 9 47
20 10 31
20 11 8
20 12 16
20 13 5
20 14 9
20 15 1
20 16 47
20 17 11
20 18 50
20 19 14
21 0 16
21 1 2
21 2 50
21 3 17
21 4 17
21 5 40
21 6 16
21 7 4
21 8 8
21 9 15
21 10 32
21 11 34
21 12 27
21 13 15
21 14 11
21 15 33
21 16 47
21 17 14
21 18 7
21 19 3
21 20 4
22 0 32
22 1 10
22 2 15
22 3 11
22 4 48
22 5 31
22 6 16
22 7 39
22 8 5
22 9 47
22 10 50
22 11 31
22 12 14
22 13 29
22 14 33
22 15 28
22 16 2
22 17 12
22 18 33
22 19 30
22 20 50
22 21 16
23 0 47
23 1 47
23 2 3
23 3 16
23 4 13
23 5 5
23 6 42
23 7 25
23 8 18
23 9 18
23 10 2
23 11 27
23 12 22
23 13 24
23 14 45
23 15 41
23 16 31
23 17 16
23 18 28
23 19 29
23 20 6
23 21 8
23 22 33
24 0 9
24 1 29
24 2 17
24 3 50
24 4 5
24 5 29
24 6 39
24 7 6
24 8 27
24 9 23
24 10 32
24 11 16
24 12 30
24 13 32
24 14 45
24 15 23
24 16 21
24 17 22
24 18 38
24 19 20
24 20 49
24 21 4
24 22 9
24 23 48
25 0 9
25 1 43
25 2 40
25 3 47
25 4 18
25 5 16
25 6 15
25 7 18
25 8 41
25 9 34
25 10 35
25 11 6
25 12 22
25 13 23
25 14 11
25 15 27
25 16 36
25 17 40
25 18 48
25 19 35
25 20 3
25 21 14
25 22 6
25 23 28
25 24 33
26 0 25
26 1 33
26 2 45
26 3 28
26 4 40
26 5 41
26 6 4
26 7 46
26 8 32
26 9 35
26 10 36
26 11 7
26 12 39
26 13 42
26 14 8
26 15 37
26 16 5
26 17 22
26 18 3
26 19 2
26 20 37
26 21 45
26 22 20
26 23 38
26 24 49
26 25 30
27 0 12
27 1 38
27 2 47
27 3 4
27 4 21
27 5 37
27 6 2
27 7 16
27 8 20
27 9 6
27 10 44
27 11 20
27 12 38
27 13 20
27 14 42
27 15 46
27 16 10
27 17 19
27 18 38
27 19 6
27 20 4
27 21 28
27 22 9
27 23 19
27 24 23
27 25 2
27 26 20
28 0 20
28 1 38
28 2 11
28 3 7
28 4 35
28 5 5
28 6 42
28 7 15
28 8 37
28 9 48
28 10 6
28 11 30
28 12 6
28 13 49
28 14 22
28 15 46
28 16 32
28 17 37
28 18 9
28 19 14
28 20 47
28 21 3
28 22 15
28 23 12
28 24 12
28 25 49
28 26 18
28 27 3
29 0 20
29 1 28
29 2 9
29 3 30
29 4 5
29 5 11
29 6 23
29 7 8
29 8 6
29 9 10
29 10 41
29 11 30
29 12 42
29 13 11
29 14 18
29 15 20
29 16 27
29 17 33
29 18 20
29 19 26
29 20 4
29 21 33
29 22 11
29 23 16
29 24 49
29 25 6
29 26 49
29 27 34
29 28 9
30 0 17
30 1 47
30 2 21
30 3 35
30 4 41
30 5 41
30 6 16
30 7 13
30 8 29
30 9 40
30 10 17
30 11 25
30 12 44
30 13 36
30 14 19
30 15 6
30 16 11
30 17 14
30 18 48
30 19 24
30 20 4
30 21 10
30 22 48
30 23 13
30 24 35
30 25 50
30 26 29
30 27 9
30 28 46
30 29 30
31 0 30
31 1 46
31 2 42
31 3 47
31 4 5
31 5 44
31 6 34
31 7 10
31 8 1
31 9 13
31 10 28
31 11 35
31 12 2
31 13 24
31 14 28
31 15 8
31 16 2
31 17 21
31 18 22
31 19 4
31 20 40
31 21 17
31 22 4
31 23 21
31 24 42
31 25 45
31 26 11
31 27 35
31 28 30
31 29 34
31 30 22
32 0 29
32 1 10
32 2 34
32 3 48
32 4 47
32 5 35
32 6 8
32 7 5
32 8 30
32 9 16
32 10 32
32 11 18
32 12 43
32 13 18
32 14 40
32 15 21
32 16 29
32 17 28
32 18 41
32 19 30
32 20 28
32 21 4
32 22 8
32 23 21
32 24 13
32 25 35
32 26 50
32 27 23
32 28 19
32 29 22
32 30 44
32 31 34
33 0 32
33 1 7
33 2 1
33 3 39
33 4 36
33 5 16
33 6 25
33 7 14
33 8 20
33 9 33
33 10 21
33 11 19
33 12 23
33 13 39
33 14 26
33 15 50
33 16 17
33 17 7
33 18 44
33 19 13
33 20 10
33 21 13
33 22 42
33 23 21
33 24 31
33 25 36
33 26 3
33 27 7
33 28 5
33 29 20
33 30 27
33 31 19
33 32 4
34 0 2
34 1 50
34 2 27
34 3 14
34 4 10
34 5 37
34 6 16
34 7 17
34 8 43
34 9 5
34 10 44
34 11 11
34 12 40
34 13 4
34 14 44
34 15 48
34 16 40
34 17 36
34 18 23
34 19 20
34 20 37
34 21 12
34 22 30
34 23 17
34 24 19
34 25 8
34 26 10
34 27 2
34 28 32
34 29 43
34 30 34
34 31 45
34 32 15
34 33 16
